
Gurobi 10.0.1 (linux64, gurobi_cl) logging started Thu Feb 16 16:52:42 2023

Set parameter Username
Set parameter LogFile to value "gurobi.log"
Academic license - for non-commercial use only - expires 2023-11-27
Using license file /home/au731993/gurobi.lic

Gurobi 10.0.1 (linux64, gurobi_cl) logging started Thu Feb 16 16:53:14 2023

Set parameter Username
Set parameter LogFile to value "gurobi.log"
Academic license - for non-commercial use only - expires 2023-11-27
Using license file /home/au731993/gurobi.lic

Gurobi 10.0.1 (linux64, gurobi_cl) logging started Sun Feb 19 11:03:27 2023

Set parameter Username
Set parameter LogFile to value "gurobi.log"
Academic license - for non-commercial use only - expires 2023-11-27
Using license file /home/au731993/gurobi.lic

Gurobi 10.0.1 (linux64, gurobi_cl) logging started Sun Feb 19 11:22:44 2023

Set parameter Username
Set parameter LogFile to value "gurobi.log"
Academic license - for non-commercial use only - expires 2023-11-27
Using license file /home/au731993/gurobi.lic

Gurobi 10.0.1 (linux64, gurobi_cl) logging started Mon Feb 20 11:00:49 2023

Set parameter Username
Set parameter LogFile to value "gurobi.log"
Academic license - for non-commercial use only - expires 2023-11-27
Using license file /home/au731993/gurobi.lic

Gurobi 10.0.1 (linux64, gurobi_cl) logging started Mon Feb 20 11:01:07 2023

Set parameter Username
Set parameter LogFile to value "gurobi.log"
Academic license - for non-commercial use only - expires 2023-11-27
Using license file /home/au731993/gurobi.lic
